
===== New CPLEX run =====
Instance: /home/yorig/tuner/mpils-tests/instances/miplib/medium-1/neos-3024952-loue.mps
Config: /scratch/yorig/mpils-results-grid-seconds-10-no-mip-start/medium-1/4proc/seed-1/9_neos-3024952-loue_seed-1_20260503_044429/iterated_local_search/run_5_worker_1/ils_config_5591030890276140423.prm
========================

Selected objective sense:  MINIMIZE
Selected objective  name:  R3706
Selected RHS        name:  B
Selected bound      name:  BOUND
Version identifier: 22.1.2.0 | 2024-11-26 | 0edbb82fd
CPXPARAM_Threads                                 8
CPXPARAM_Parallel                                1
CPXPARAM_MIP_Cuts_Cliques                        2
CPXPARAM_MIP_Strategy_PresolveNode               1
CPXPARAM_MIP_Limits_GomoryCand                   400
CPXPARAM_MIP_Cuts_PathCut                        1
CPXPARAM_MIP_Cuts_MIRCut                         2
CPXPARAM_MIP_Cuts_Disjunctive                    1
CPXPARAM_Emphasis_MIP                            4
CPXPARAM_MIP_Strategy_Dive                       1
CPXPARAM_TimeLimit                               10
67 of 67 MIP starts provided solutions.
MIP start 'm1' defined initial solution with objective 27296.0000.
Tried aggregator 2 times.
MIP Presolve eliminated 40 rows and 0 columns.
MIP Presolve modified 80 coefficients.
Aggregator did 32 substitutions.
Reduced MIP has 3633 rows, 3223 columns, and 15906 nonzeros.
Reduced MIP has 0 binaries, 3223 generals, 0 SOSs, and 0 indicators.
Presolve time = 0.01 sec. (7.72 ticks)
Tried aggregator 1 time.
Detecting symmetries...
Reduced MIP has 3633 rows, 3223 columns, and 15906 nonzeros.
Reduced MIP has 0 binaries, 3223 generals, 0 SOSs, and 0 indicators.
Presolve time = 0.01 sec. (8.53 ticks)
MIP emphasis: hidden feasible solutions.
MIP search method: dynamic search.
Parallel mode: deterministic, using up to 8 threads.
Root relaxation solution time = 0.14 sec. (166.79 ticks)

        Nodes                                         Cuts/
   Node  Left     Objective  IInf  Best Integer    Best Bound    ItCnt     Gap

*     0+    0                        27296.0000 -3965000.0000              --- 
      0     0    22882.0000   397    27296.0000    22882.0000     3901   16.17%
      0     0    23673.0243   710    27296.0000     Cuts: 542     4491   13.27%
      0     0    23915.8246   823    27296.0000     Cuts: 259     4724   12.38%
      0     0    23989.2733  1000    27296.0000     Cuts: 150     4817   12.11%
      0     0    24005.1465  1029    27296.0000     Cuts: 125     4881   12.06%
      0     0    24161.8095   950    27296.0000     Cuts: 123     5048   11.48%
Detecting symmetries...
      0     0    24268.3684  1124    27296.0000     Cuts: 113     5151   11.09%
      0     0    24360.7622  1214    27296.0000     Cuts: 106     5242   10.75%
      0     0    24511.5247  1103    27296.0000      Cuts: 88     5348   10.20%
      0     0    24568.0684  1171    27296.0000      Cuts: 76     5411    9.99%
      0     0    24634.2935  1188    27296.0000      Cuts: 63     5496    9.75%
      0     0    24644.1960  1281    27296.0000      Cuts: 56     5563    9.71%
      0     0    24674.6706   968    27296.0000      Cuts: 61     5621    9.60%
      0     0    24680.0553  1124    27296.0000      Cuts: 62     5665    9.58%
      0     0    24683.1921  1107    27296.0000      Cuts: 34     5710    9.57%
      0     0    24684.0397  1113    27296.0000      Cuts: 50     5745    9.57%
      0     0    24684.3898  1206    27296.0000      Cuts: 38     5775    9.57%
Detecting symmetries...
      0     2    24684.3898  1206    27296.0000    24966.0643     5775    8.54%
Elapsed time = 1.85 sec. (2523.97 ticks, tree = 0.02 MB, solutions = 67)
    390   311    24854.2259  1033    27296.0000    24966.0643     8920    8.54%
    983   857    24989.9024   880    27296.0000    24966.0643    14054    8.54%
   1846  1746    25086.8199   896    27296.0000    24966.0643    23427    8.54%

Performing restart 1

Repeating presolve.
Tried aggregator 1 time.
MIP Presolve modified 16 coefficients.
Reduced MIP has 3633 rows, 3223 columns, and 15892 nonzeros.
Reduced MIP has 0 binaries, 3223 generals, 0 SOSs, and 0 indicators.
Presolve time = 0.00 sec. (6.35 ticks)
Tried aggregator 1 time.
Reduced MIP has 3633 rows, 3223 columns, and 15892 nonzeros.
Reduced MIP has 0 binaries, 3223 generals, 0 SOSs, and 0 indicators.
Presolve time = 0.01 sec. (8.71 ticks)
Represolve time = 0.03 sec. (32.21 ticks)
   1884     0    25432.7615  1064    27296.0000     Cuts: 387    31558    6.83%
   1884     0    25667.1685   972    27296.0000     Cuts: 310    31774    5.97%
*  1884+    0                        27286.0000    25667.1685             5.93%
   1884     0    25829.7014  1101    27286.0000     Cuts: 251    31995    5.34%
   1884     0    25948.4582   909    27286.0000     Cuts: 149    32162    4.90%
   1884     0    26093.7649  1053    27286.0000     Cuts: 197    32321    4.37%
   1884     0    26145.8723  1167    27286.0000     Cuts: 135    32456    4.18%
